1438913328
1438913342
1438913349
1438913401
1438913349
1438913349
1438913349
1438913349
1438913349
1438913349
1438913349
1438913349
1438913349
1438913349
1438913349
1438913349
1438913349
1438913349
1438913349
1438913349
1438913349
1438913349
1438913349
1438913349
1438913349
1438913349
1438913349
1438913349
1438913349
1438913349
1438913349
1438913349
1438913349
1438913349
1438913349
1438913349
1438913349
1438913349
1438913349
1438913349
1438913349
1438913349
1438913349
1438913349
1438913349
1438913349
1438913349
1438913349
1438913349
1438913349
1438913349
1438913349
1438913349
1438913349
1438913349
1438913349
1438913349
